rcpsp/heur_output_or_constraints/Log=5/heurj90.txt
encoding rcpsp/j90.sm/j9013_7.sm nv: 2768000 nc: 5662894 enctime: 51.51
encoding rcpsp/j90.sm/j9013_7.sm nv: 763968 nc: 1560348 enctime: 11.62
c File: j9013_7.smnaiveor5.wcnf
c timeout
c final solution cost: 133
c CPU time: 66.349767
s UNKNOWN

c File: j9013_7.smor5.wcnf
c timeout
c CPU time: 61.113928
s UNKNOWN


rcpsp/heur_output_or_constraints/Log=5/heurj90.txt
encoding rcpsp/j90.sm/j9013_8.sm nv: 3019275 nc: 6156728 enctime: 55.74
encoding rcpsp/j90.sm/j9013_8.sm nv: 801900 nc: 1632553 enctime: 10.38
c File: j9013_8.smnaiveor5.wcnf
c timeout
c final solution cost: 399
c CPU time: 66.660472
s UNKNOWN

c File: j9013_8.smor5.wcnf
c timeout
c CPU time: 61.135651
s UNKNOWN


rcpsp/heur_output_or_constraints/Log=5/heurj90.txt
encoding rcpsp/j90.sm/j9013_9.sm nv: 2194388 nc: 4473114 enctime: 40.43
encoding rcpsp/j90.sm/j9013_9.sm nv: 679455 nc: 1383048 enctime: 8.60
c File: j9013_9.smnaiveor5.wcnf
c timeout
c final solution cost: 144
c CPU time: 65.080863
s UNKNOWN

c File: j9013_9.smor5.wcnf
c timeout
c CPU time: 61.011480
s UNKNOWN


rcpsp/heur_output_or_constraints/Log=5/heurj90.txt
encoding rcpsp/j90.sm/j901_3.sm nv: 341320 nc: 802762 enctime: 12.39
encoding rcpsp/j90.sm/j901_3.sm nv: 52682 nc: 121234 enctime: 1.06
c File: j901_3.smnaiveor5.wcnf
c optimal
c final solution cost: 60
c CPU time: 40.052011
s OPTIMUM FOUND

c File: j901_3.smor5.wcnf
c optimal
c final solution cost: 60
c CPU time: 0.584802
s OPTIMUM FOUND


rcpsp/heur_output_or_constraints/Log=5/heurj90.txt
encoding rcpsp/j90.sm/j9014_10.sm nv: 4837306 nc: 9764172 enctime: 81.97
encoding rcpsp/j90.sm/j9014_10.sm nv: 804602 nc: 1620972 enctime: 11.19
c File: j9014_10.smnaiveor5.wcnf
c timeout
c final solution cost: 78
c CPU time: 69.500571
s UNKNOWN

c File: j9014_10.smor5.wcnf
c timeout
c final solution cost: 76
c CPU time: 61.267296
s UNKNOWN


rcpsp/heur_output_or_constraints/Log=5/heurj90.txt
encoding rcpsp/j90.sm/j9014_1.sm nv: 4968417 nc: 10024828 enctime: 83.33
encoding rcpsp/j90.sm/j9014_1.sm nv: 922281 nc: 1857892 enctime: 12.55
c File: j9014_1.smnaiveor5.wcnf
c optimal
c final solution cost: 89
c CPU time: 16.097986
s OPTIMUM FOUND

c File: j9014_1.smor5.wcnf
c optimal
c final solution cost: 89
c CPU time: 3.030151
s OPTIMUM FOUND


rcpsp/heur_output_or_constraints/Log=5/heurj90.txt
encoding rcpsp/j90.sm/j9014_2.sm nv: 4765122 nc: 9602333 enctime: 79.00
encoding rcpsp/j90.sm/j9014_2.sm nv: 753975 nc: 1516598 enctime: 10.58
c File: j9014_2.smnaiveor5.wcnf
c timeout
c final solution cost: 74
c CPU time: 69.110241
s UNKNOWN

c File: j9014_2.smor5.wcnf
c timeout
c final solution cost: 67
c CPU time: 61.175451
s UNKNOWN


rcpsp/heur_output_or_constraints/Log=5/heurj90.txt
encoding rcpsp/j90.sm/j9014_3.sm nv: 5873230 nc: 11816804 enctime: 97.01
encoding rcpsp/j90.sm/j9014_3.sm nv: 882750 nc: 1773092 enctime: 12.45
c File: j9014_3.smnaiveor5.wcnf
c timeout
c final solution cost: 445
c CPU time: 70.805176
s UNKNOWN

c File: j9014_3.smor5.wcnf
c timeout
c final solution cost: 67
c CPU time: 61.402747
s UNKNOWN


rcpsp/heur_output_or_constraints/Log=5/heurj90.txt
encoding rcpsp/j90.sm/j9014_4.sm nv: 5080500 nc: 10242947 enctime: 85.32
encoding rcpsp/j90.sm/j9014_4.sm nv: 884007 nc: 1779338 enctime: 12.12
c File: j9014_4.smnaiveor5.wcnf
c optimal
c final solution cost: 80
c CPU time: 57.852340
s OPTIMUM FOUND

c File: j9014_4.smor5.wcnf
c optimal
c final solution cost: 80
c CPU time: 12.416224
s OPTIMUM FOUND


rcpsp/heur_output_or_constraints/Log=5/heurj90.txt
encoding rcpsp/j90.sm/j9014_5.sm nv: 5760705 nc: 11588260 enctime: 95.27
encoding rcpsp/j90.sm/j9014_5.sm nv: 876375 nc: 1759826 enctime: 12.39
c File: j9014_5.smnaiveor5.wcnf
c timeout
c CPU time: 69.359188
s UNKNOWN

c File: j9014_5.smor5.wcnf
c timeout
c CPU time: 61.088407
s UNKNOWN


rcpsp/heur_output_or_constraints/Log=5/heurj90.txt
encoding rcpsp/j90.sm/j9014_6.sm nv: 5393402 nc: 10877716 enctime: 92.41
encoding rcpsp/j90.sm/j9014_6.sm nv: 818454 nc: 1647596 enctime: 8.81
c File: j9014_6.smnaiveor5.wcnf
c timeout
c final solution cost: 146
c CPU time: 70.486716
s UNKNOWN

c File: j9014_6.smor5.wcnf
c optimal
c final solution cost: 74
c CPU time: 22.630373
s OPTIMUM FOUND


rcpsp/heur_output_or_constraints/Log=5/heurj90.txt
encoding rcpsp/j90.sm/j9014_7.sm nv: 6555585 nc: 13162119 enctime: 107.62
encoding rcpsp/j90.sm/j9014_7.sm nv: 915950 nc: 1835870 enctime: 13.34
c File: j9014_7.smnaiveor5.wcnf
c optimal
c final solution cost: 65
c CPU time: 19.547708
s OPTIMUM FOUND

c File: j9014_7.smor5.wcnf
c optimal
c final solution cost: 65
c CPU time: 2.985968
s OPTIMUM FOUND


rcpsp/heur_output_or_constraints/Log=5/heurj90.txt
encoding rcpsp/j90.sm/j9014_8.sm nv: 5689712 nc: 11468349 enctime: 96.18
encoding rcpsp/j90.sm/j9014_8.sm nv: 878720 nc: 1767963 enctime: 12.55
c File: j9014_8.smnaiveor5.wcnf
c optimal
c final solution cost: 69
c CPU time: 59.771784
s OPTIMUM FOUND

c File: j9014_8.smor5.wcnf
c optimal
c final solution cost: 69
c CPU time: 13.380654
s OPTIMUM FOUND


rcpsp/heur_output_or_constraints/Log=5/heurj90.txt
encoding rcpsp/j90.sm/j9014_9.sm nv: 4949438 nc: 10011630 enctime: 72.51
encoding rcpsp/j90.sm/j9014_9.sm nv: 900742 nc: 1818754 enctime: 10.65
c File: j9014_9.smnaiveor5.wcnf
c timeout
c final solution cost: 90
c CPU time: 69.111275
s UNKNOWN

c File: j9014_9.smor5.wcnf
c timeout
c final solution cost: 90
c CPU time: 61.261483
s UNKNOWN


rcpsp/heur_output_or_constraints/Log=5/heurj90.txt
encoding rcpsp/j90.sm/j901_4.sm nv: 339378 nc: 825468 enctime: 12.27
encoding rcpsp/j90.sm/j901_4.sm nv: 70761 nc: 169370 enctime: 0.86
c File: j901_4.smnaiveor5.wcnf
c optimal
c final solution cost: 81
c CPU time: 17.809408
s OPTIMUM FOUND

c File: j901_4.smor5.wcnf
c optimal
c final solution cost: 81
c CPU time: 1.446955
s OPTIMUM FOUND


rcpsp/heur_output_or_constraints/Log=5/heurj90.txt
encoding rcpsp/j90.sm/j9015_10.sm nv: 5725343 nc: 11504280 enctime: 78.91
encoding rcpsp/j90.sm/j9015_10.sm nv: 761792 nc: 1527972 enctime: 9.40
c File: j9015_10.smnaiveor5.wcnf
c timeout
c CPU time: 68.693828
s UNKNOWN

c File: j9015_10.smor5.wcnf
c timeout
c CPU time: 60.885779
s UNKNOWN


rcpsp/heur_output_or_constraints/Log=5/heurj90.txt
encoding rcpsp/j90.sm/j9015_1.sm nv: 6431508 nc: 12880625 enctime: 86.71
encoding rcpsp/j90.sm/j9015_1.sm nv: 896427 nc: 1792569 enctime: 11.00
c File: j9015_1.smnaiveor5.wcnf
c optimal
c final solution cost: 59
c CPU time: 15.436681
s OPTIMUM FOUND

c File: j9015_1.smor5.wcnf
c optimal
c final solution cost: 59
c CPU time: 1.985005
s OPTIMUM FOUND


rcpsp/heur_output_or_constraints/Log=5/heurj90.txt
encoding rcpsp/j90.sm/j9015_2.sm nv: 6879910 nc: 13814515 enctime: 93.93
encoding rcpsp/j90.sm/j9015_2.sm nv: 1000465 nc: 2005861 enctime: 12.14
c File: j9015_2.smnaiveor5.wcnf
c optimal
c final solution cost: 71
c CPU time: 18.138557
s OPTIMUM FOUND

c File: j9015_2.smor5.wcnf
c optimal
c final solution cost: 71
c CPU time: 2.328096
s OPTIMUM FOUND


rcpsp/heur_output_or_constraints/Log=5/heurj90.txt
encoding rcpsp/j90.sm/j9015_3.sm nv: 6007690 nc: 12067416 enctime: 81.95
encoding rcpsp/j90.sm/j9015_3.sm nv: 961730 nc: 1929036 enctime: 11.45
c File: j9015_3.smnaiveor5.wcnf
c optimal
c final solution cost: 76
c CPU time: 15.484812
s OPTIMUM FOUND

c File: j9015_3.smor5.wcnf
c optimal
c final solution cost: 76
c CPU time: 1.676186
s OPTIMUM FOUND


rcpsp/heur_output_or_constraints/Log=5/heurj90.txt
encoding rcpsp/j90.sm/j9015_4.sm nv: 7260949 nc: 14566160 enctime: 97.35
encoding rcpsp/j90.sm/j9015_4.sm nv: 1076774 nc: 2157010 enctime: 12.93
c File: j9015_4.smnaiveor5.wcnf
c optimal
c final solution cost: 70
c CPU time: 17.698410
s OPTIMUM FOUND

c File: j9015_4.smor5.wcnf
c optimal
c final solution cost: 70
c CPU time: 2.498956
s OPTIMUM FOUND


rcpsp/heur_output_or_constraints/Log=5/heurj90.txt
encoding rcpsp/j90.sm/j9015_5.sm nv: 5389200 nc: 10856743 enctime: 76.54
encoding rcpsp/j90.sm/j9015_5.sm nv: 1015200 nc: 2042323 enctime: 11.99
c File: j9015_5.smnaiveor5.wcnf
c optimal
c final solution cost: 93
c CPU time: 14.903800
s OPTIMUM FOUND

c File: j9015_5.smor5.wcnf
c optimal
c final solution cost: 93
c CPU time: 1.912198
s OPTIMUM FOUND


rcpsp/heur_output_or_constraints/Log=5/heurj90.txt
encoding rcpsp/j90.sm/j9015_6.sm nv: 7615176 nc: 15257855 enctime: 103.03
encoding rcpsp/j90.sm/j9015_6.sm nv: 959636 nc: 1919685 enctime: 12.06
c File: j9015_6.smnaiveor5.wcnf
c optimal
c final solution cost: 61
c CPU time: 19.412656
s OPTIMUM FOUND

c File: j9015_6.smor5.wcnf
c optimal
c final solution cost: 61
c CPU time: 1.679322
s OPTIMUM FOUND


rcpsp/heur_output_or_constraints/Log=5/heurj90.txt
encoding rcpsp/j90.sm/j9015_7.sm nv: 5947000 nc: 11943339 enctime: 80.96
encoding rcpsp/j90.sm/j9015_7.sm nv: 964040 nc: 1933241 enctime: 11.44
c File: j9015_7.smnaiveor5.wcnf
c optimal
c final solution cost: 73
c CPU time: 15.325652
s OPTIMUM FOUND

c File: j9015_7.smor5.wcnf
c optimal
c final solution cost: 73
c CPU time: 2.328742
s OPTIMUM FOUND


rcpsp/heur_output_or_constraints/Log=5/heurj90.txt
encoding rcpsp/j90.sm/j9015_8.sm nv: 5681986 nc: 11418279 enctime: 78.32
encoding rcpsp/j90.sm/j9015_8.sm nv: 998508 nc: 2003649 enctime: 11.80
c File: j9015_8.smnaiveor5.wcnf
c optimal
c final solution cost: 82
c CPU time: 14.828003
s OPTIMUM FOUND

c File: j9015_8.smor5.wcnf
c optimal
c final solution cost: 82
c CPU time: 2.274909
s OPTIMUM FOUND


rcpsp/heur_output_or_constraints/Log=5/heurj90.txt
encoding rcpsp/j90.sm/j9015_9.sm nv: 7193000 nc: 14422803 enctime: 96.54
encoding rcpsp/j90.sm/j9015_9.sm nv: 1078950 nc: 2160278 enctime: 12.89
c File: j9015_9.smnaiveor5.wcnf
c optimal
c final solution cost: 74
c CPU time: 19.374979
s OPTIMUM FOUND

c File: j9015_9.smor5.wcnf
c optimal
c final solution cost: 74
c CPU time: 1.992294
s OPTIMUM FOUND


rcpsp/heur_output_or_constraints/Log=5/heurj90.txt
encoding rcpsp/j90.sm/j901_5.sm nv: 336742 nc: 801568 enctime: 11.11
encoding rcpsp/j90.sm/j901_5.sm nv: 55286 nc: 128896 enctime: 0.93
c File: j901_5.smnaiveor5.wcnf
c optimal
c final solution cost: 68
c CPU time: 4.545860
s OPTIMUM FOUND

c File: j901_5.smor5.wcnf
c optimal
c final solution cost: 68
c CPU time: 0.432058
s OPTIMUM FOUND


rcpsp/heur_output_or_constraints/Log=5/heurj90.txt
encoding rcpsp/j90.sm/j9016_10.sm nv: 7135656 nc: 14276952 enctime: 96.01
encoding rcpsp/j90.sm/j9016_10.sm nv: 1023880 nc: 2046028 enctime: 10.18
c File: j9016_10.smnaiveor5.wcnf
c optimal
c final solution cost: 64
c CPU time: 17.783983
s OPTIMUM FOUND

c File: j9016_10.smor5.wcnf
c optimal
c final solution cost: 64
c CPU time: 1.766982
s OPTIMUM FOUND


rcpsp/heur_output_or_constraints/Log=5/heurj90.txt
encoding rcpsp/j90.sm/j9016_1.sm nv: 9261600 nc: 18529231 enctime: 124.07
encoding rcpsp/j90.sm/j9016_1.sm nv: 1416480 nc: 2830783 enctime: 17.19
c File: j9016_1.smnaiveor5.wcnf
c optimal
c final solution cost: 77
c CPU time: 19.089214
s OPTIMUM FOUND

c File: j9016_1.smor5.wcnf
c optimal
c final solution cost: 77
c CPU time: 2.295143
s OPTIMUM FOUND


rcpsp/heur_output_or_constraints/Log=5/heurj90.txt
encoding rcpsp/j90.sm/j9016_2.sm nv: 8249556 nc: 16504823 enctime: 108.68
encoding rcpsp/j90.sm/j9016_2.sm nv: 1109184 nc: 2216251 enctime: 13.56
c File: j9016_2.smnaiveor5.wcnf
c optimal
c final solution cost: 63
c CPU time: 16.462210
s OPTIMUM FOUND

c File: j9016_2.smor5.wcnf
c optimal
c final solution cost: 63
c CPU time: 1.799169
s OPTIMUM FOUND


rcpsp/heur_output_or_constraints/Log=5/heurj90.txt
encoding rcpsp/j90.sm/j9016_3.sm nv: 7242985 nc: 14516338 enctime: 97.54
encoding rcpsp/j90.sm/j9016_3.sm nv: 1001535 nc: 2004198 enctime: 12.17
c File: j9016_3.smnaiveor5.wcnf
c optimal
c final solution cost: 67
c CPU time: 17.042910
s OPTIMUM FOUND

c File: j9016_3.smor5.wcnf
c optimal
c final solution cost: 67
c CPU time: 1.834489
s OPTIMUM FOUND


rcpsp/heur_output_or_constraints/Log=5/heurj90.txt
encoding rcpsp/j90.sm/j9016_4.sm nv: 8573351 nc: 17153539 enctime: 115.54
encoding rcpsp/j90.sm/j9016_4.sm nv: 1187348 nc: 2372650 enctime: 11.82
c File: j9016_4.smnaiveor5.wcnf
c optimal
c final solution cost: 66
c CPU time: 17.858769
s OPTIMUM FOUND

c File: j9016_4.smor5.wcnf
c optimal
c final solution cost: 66
c CPU time: 2.680115
s OPTIMUM FOUND


rcpsp/heur_output_or_constraints/Log=5/heurj90.txt
encoding rcpsp/j90.sm/j9016_5.sm nv: 7854002 nc: 15697056 enctime: 103.51
encoding rcpsp/j90.sm/j9016_5.sm nv: 1168648 nc: 2332961 enctime: 14.06
c File: j9016_5.smnaiveor5.wcnf
c optimal
c final solution cost: 66
c CPU time: 16.088355
s OPTIMUM FOUND

c File: j9016_5.smor5.wcnf
c optimal
c final solution cost: 66
c CPU time: 2.135366
s OPTIMUM FOUND


rcpsp/heur_output_or_constraints/Log=5/heurj90.txt
encoding rcpsp/j90.sm/j9016_6.sm nv: 12037272 nc: 24037965 enctime: 152.35
encoding rcpsp/j90.sm/j9016_6.sm nv: 1558296 nc: 3108317 enctime: 18.32
c File: j9016_6.smnaiveor5.wcnf
c optimal
c final solution cost: 68
c CPU time: 23.201443
s OPTIMUM FOUND

c File: j9016_6.smor5.wcnf
c optimal
c final solution cost: 68
c CPU time: 2.415389
s OPTIMUM FOUND


rcpsp/heur_output_or_constraints/Log=5/heurj90.txt
encoding rcpsp/j90.sm/j9016_7.sm nv: 7499993 nc: 14981949 enctime: 100.09
encoding rcpsp/j90.sm/j9016_7.sm nv: 1143186 nc: 2281180 enctime: 14.15
c File: j9016_7.smnaiveor5.wcnf
c optimal
c final solution cost: 65
c CPU time: 15.061383
s OPTIMUM FOUND

c File: j9016_7.smor5.wcnf
c optimal
c final solution cost: 65
c CPU time: 1.925423
s OPTIMUM FOUND


rcpsp/heur_output_or_constraints/Log=5/heurj90.txt
encoding rcpsp/j90.sm/j9016_8.sm nv: 9230809 nc: 18448177 enctime: 123.43
encoding rcpsp/j90.sm/j9016_8.sm nv: 1194802 nc: 2384920 enctime: 15.04
c File: j9016_8.smnaiveor5.wcnf
c optimal
c final solution cost: 61
c CPU time: 18.786288
s OPTIMUM FOUND

c File: j9016_8.smor5.wcnf
c optimal
c final solution cost: 61
c CPU time: 1.966916
s OPTIMUM FOUND


rcpsp/heur_output_or_constraints/Log=5/heurj90.txt
encoding rcpsp/j90.sm/j9016_9.sm nv: 8795952 nc: 17622378 enctime: 117.95
encoding rcpsp/j90.sm/j9016_9.sm nv: 1116153 nc: 2232815 enctime: 13.58
c File: j9016_9.smnaiveor5.wcnf
c optimal
c final solution cost: 66
c CPU time: 18.370281
s OPTIMUM FOUND

c File: j9016_9.smor5.wcnf
c optimal
c final solution cost: 66
c CPU time: 1.810262
s OPTIMUM FOUND


rcpsp/heur_output_or_constraints/Log=5/heurj90.txt
encoding rcpsp/j90.sm/j901_6.sm nv: 382962 nc: 914771 enctime: 12.61
encoding rcpsp/j90.sm/j901_6.sm nv: 61520 nc: 143979 enctime: 1.03
c File: j901_6.smnaiveor5.wcnf
c optimal
c final solution cost: 70
c CPU time: 4.774294
s OPTIMUM FOUND

c File: j901_6.smor5.wcnf
c optimal
c final solution cost: 70
c CPU time: 0.819065
s OPTIMUM FOUND


rcpsp/heur_output_or_constraints/Log=5/heurj90.txt
encoding rcpsp/j90.sm/j9017_10.sm nv: 351945 nc: 862175 enctime: 12.87
encoding rcpsp/j90.sm/j9017_10.sm nv: 65412 nc: 157328 enctime: 1.14
c File: j9017_10.smnaiveor5.wcnf
c optimal
c final solution cost: 78
c CPU time: 5.035721
s OPTIMUM FOUND

c File: j9017_10.smor5.wcnf
c optimal
c final solution cost: 78
c CPU time: 0.655186
s OPTIMUM FOUND


rcpsp/heur_output_or_constraints/Log=5/heurj90.txt
encoding rcpsp/j90.sm/j9017_1.sm nv: 333586 nc: 844765 enctime: 13.62
encoding rcpsp/j90.sm/j9017_1.sm nv: 62953 nc: 156298 enctime: 0.77
c File: j9017_1.smnaiveor5.wcnf
c optimal
c final solution cost: 79
c CPU time: 20.036469
s OPTIMUM FOUND

c File: j9017_1.smor5.wcnf
c optimal
c final solution cost: 79
c CPU time: 1.910269
s OPTIMUM FOUND


rcpsp/heur_output_or_constraints/Log=5/heurj90.txt
encoding rcpsp/j90.sm/j9017_2.sm nv: 326529 nc: 815700 enctime: 12.28
encoding rcpsp/j90.sm/j9017_2.sm nv: 78840 nc: 194027 enctime: 1.39
c File: j9017_2.smnaiveor5.wcnf
c optimal
c final solution cost: 90
c CPU time: 10.686628
s OPTIMUM FOUND

c File: j9017_2.smor5.wcnf
c optimal
c final solution cost: 90
c CPU time: 1.021754
s OPTIMUM FOUND


